
Gurobi 12.0.2 (win64) logging started Mon Sep 15 14:20:34 2025

Set parameter LogFile to value "C:\Ioana\_uni\honours\slp\algorithm\Main_files\results\paracetamol with updated samples\Task_004_Sample001_irr_gurobi.log"
Gurobi Optimizer version 12.0.2 build v12.0.2rc0 (win64 - Windows 11.0 (26100.2))

CPU model: Intel(R) Core(TM) Ultra 5 125H, instruction set [SSE2|AVX|AVX2]
Thread count: 14 physical cores, 18 logical processors, using up to 18 threads

Non-default parameters:
TimeLimit  2200

Optimize a model with 47236 rows, 34520 columns and 146730 nonzeros
Model fingerprint: 0xc68599fd
Variable types: 17271 continuous, 17249 integer (17249 binary)
Coefficient statistics:
  Matrix range     [1e-04, 8e+04]
  Objective range  [1e-04, 9e-01]
  Bounds range     [1e+00, 1e+03]
  RHS range        [1e+00, 1e+00]
Found heuristic solution: objective 1.8035851
Presolve removed 32862 rows and 23027 columns
Presolve time: 0.34s
Presolved: 14374 rows, 11493 columns, 46901 nonzeros
Variable types: 5700 continuous, 5793 integer (5793 binary)

Root relaxation: objective 2.950292e-02, 2925 iterations, 0.22 seconds (0.50 work units)

    Nodes    |    Current Node    |     Objective Bounds      |     Work
 Expl Unexpl |  Obj  Depth IntInf | Incumbent    BestBd   Gap | It/Node Time

     0     0    0.02950    0    2    1.80359    0.02950  98.4%     -    0s
H    0     0                       0.9090764    0.02950  96.8%     -    0s
H    0     0                       0.0619692    0.02950  52.4%     -    0s
     0     0    0.02950    0    2    0.06197    0.02950  52.4%     -    0s

Explored 1 nodes (2925 simplex iterations) in 0.65 seconds (0.95 work units)
Thread count was 18 (of 18 available processors)

Solution count 3: 0.0619692 0.909076 1.80359 

Optimal solution found (tolerance 1.00e-04)
Best objective 6.196921853517e-02, best bound 6.196921853517e-02, gap 0.0000%
